analyze/results_flowersnark/final_miplib_symretope_if_extended_generating_set_cpx_v802__settings_final_nopeek_norelabel_extend_norestarts__3__square23.mps.gz.sol
solution status: optimal solution found
objective value:                                   13
x_1_1_7                                             1 	(obj:1)
x_1_8_6                                             1 	(obj:1)
x_1_14_10                                           1 	(obj:1)
x_7_8_2                                             1 	(obj:1)
x_7_10_4                                            1 	(obj:1)
x_8_1_6                                             1 	(obj:1)
x_8_7_1                                             1 	(obj:1)
x_9_7_3                                             1 	(obj:1)
x_11_10_1                                           1 	(obj:1)
x_11_11_13                           1.00000000000001 	(obj:1)
x_12_7_2                                            1 	(obj:1)
x_12_9_2                                            1 	(obj:1)
x_14_1_10                            1.00000000000001 	(obj:1)
y_13                                 1.00000000000001 	(obj:0)
y_10                                 2.00000000000001 	(obj:0)
y_7                                                 1 	(obj:0)
y_6                                                 2 	(obj:0)
y_4                                                 1 	(obj:0)
y_3                                                 1 	(obj:0)
y_2                                                 3 	(obj:0)
y_1                                                 2 	(obj:0)
